Normalized Data/p02_1030_tsplib0_normalized_split0.vrp
NAME:p02_1030_tsplib0_NORMALIZED_split
BEST_KNOWN: 0
COMMENT: 0
DIMENSION: 248
CAPACITY: 100
EDGE_WEIGHT_FORMAT: FUNCTION
EDGE_WEIGHT_TYPE: EXACT_2D
NODE_COORD_SECTION
1 0.00000 0.00000
2 -18 -18
3 -18 -18
4 -18 -18
5 -4 -14
6 -4 -14
7 -4 -14
8 -4 -14
9 -19 5
10 -19 5
11 -19 5
12 -19 5
13 -19 5
14 5 -5
15 15 -20
16 15 -20
17 15 -20
18 15 -20
19 -7 -6
20 -7 -6
21 -7 -6
22 -7 -6
23 10 10
24 10 10
25 10 10
26 10 10
27 10 10
28 10 10
29 15 5
30 15 5
31 15 5
32 -14 19
33 -14 19
34 -14 19
35 -14 19
36 0 26
37 15 25
38 15 25
39 -5 11
40 -5 11
41 -5 11
42 -5 11
43 22 -5
44 22 -5
45 22 -5
46 22 -5
47 22 -5
48 22 -5
49 22 17
50 22 -16
51 22 -16
52 22 -16
53 22 -16
54 -19 -4
55 -19 -4
56 -7 4
57 -7 4
58 -31 16
59 22 8
60 22 8
61 22 8
62 26 -26
63 4 -27
64 4 -27
65 -14 -27
66 -14 -27
67 -14 -27
68 -29 -12
69 -29 -12
70 -29 -12
71 -33 3
72 -33 3
73 -23 24
74 -23 24
75 1 6
76 1 6
77 1 6
78 1 6
79 1 6
80 15 -6
81 -5 -24
82 -5 -24
83 12 -14
84 12 -14
85 12 -14
86 3 -14
87 3 -14
88 -9 36
89 -9 36
90 -9 36
91 -18 13
92 -18 13
93 -14 -11
94 -14 -11
95 -14 -11
96 10 0
97 10 0
98 10 0
99 10 0
100 10 0
101 15 10
102 15 10
103 15 10
104 14 -30
105 14 -30
106 14 -30
107 14 -30
108 14 -30
109 14 -30
110 20 -25
111 20 -25
112 7 26
113 7 26
114 7 26
115 7 26
116 7 26
117 7 26
118 -10 20
119 -10 20
120 -10 20
121 -10 20
122 -10 20
123 -10 20
124 -10 10
125 -10 10
126 -10 10
127 -28 -23
128 -28 -23
129 -28 -23
130 -28 -23
131 -25 -26
132 -24 -21
133 -24 -21
134 -24 -21
135 -19 8
136 -19 8
137 -19 8
138 10 -10
139 10 -10
140 10 -10
141 10 -10
142 11 2
143 11 2
144 10 -25
145 10 -25
146 10 -25
147 10 -25
148 10 -25
149 10 -25
150 8 -19
151 8 -19
152 8 -19
153 8 -19
154 8 -19
155 -28 -2
156 -28 -2
157 -28 -2
158 -25 16
159 -25 16
160 -25 16
161 -11 -1
162 -11 -1
163 -11 -1
164 14 -2
165 14 -2
166 14 -2
167 15 17
168 15 17
169 27 1
170 27 1
171 27 1
172 27 1
173 -30 30
174 -30 30
175 -30 30
176 -30 30
177 -30 30
178 -34 -15
179 -34 -15
180 -34 -15
181 -34 -15
182 -34 -15
183 25 -13
184 25 -13
185 0 20
186 0 20
187 0 20
188 0 20
189 30 24
190 30 24
191 30 24
192 30 24
193 24 -36
194 24 -36
195 24 -36
196 -4 -34
197 -4 -34
198 -4 -34
199 -4 -34
200 -10 -20
201 -10 -20
202 -20 -10
203 -20 -10
204 -25 -35
205 -25 -35
206 10 30
207 10 30
208 10 30
209 17 32
210 17 32
211 17 32
212 17 32
213 17 32
214 17 32
215 5 2
216 5 2
217 5 2
218 -2 -7
219 -2 -7
220 10 -36
221 10 -36
222 10 -36
223 10 -36
224 10 -36
225 10 -36
226 26 -32
227 26 -32
228 26 -32
229 26 -32
230 19 -35
231 19 -35
232 19 -35
233 19 -35
234 19 -35
235 -5 20
236 -5 20
237 -5 20
238 -5 20
239 -13 -16
240 -13 -16
241 -13 -16
242 0 -20
243 0 -20
244 0 -20
245 0 -20
246 0 -20
247 0 -20
248 0 -3
DEMAND_SECTION
1 0
2 20
3 5
4 1
5 10
6 5
7 1
8 1
9 10
10 1
11 1
12 1
13 1
14 20
15 20
16 5
17 1
18 1
19 20
20 5
21 1
22 1
23 10
24 5
25 1
26 1
27 1
28 1
29 10
30 1
31 1
32 10
33 1
34 1
35 1
36 10
37 20
38 5
39 10
40 5
41 1
42 1
43 10
44 5
45 1
46 1
47 1
48 1
49 20
50 20
51 1
52 1
53 1
54 10
55 5
56 10
57 1
58 20
59 20
60 5
61 1
62 20
63 10
64 1
65 20
66 1
67 1
68 20
69 1
70 1
71 20
72 1
73 20
74 5
75 20
76 1
77 1
78 1
79 1
80 10
81 20
82 5
83 10
84 1
85 1
86 10
87 1
88 20
89 5
90 1
91 20
92 5
93 20
94 5
95 1
96 10
97 1
98 1
99 1
100 1
101 20
102 5
103 1
104 10
105 5
106 1
107 1
108 1
109 1
110 20
111 5
112 10
113 5
114 1
115 1
116 1
117 1
118 10
119 5
120 1
121 1
122 1
123 1
124 20
125 5
126 1
127 10
128 1
129 1
130 1
131 10
132 20
133 1
134 1
135 20
136 1
137 1
138 20
139 5
140 1
141 1
142 10
143 5
144 10
145 5
146 1
147 1
148 1
149 1
150 10
151 5
152 1
153 1
154 1
155 20
156 5
157 1
158 20
159 1
160 1
161 20
162 1
163 1
164 20
165 1
166 1
167 10
168 1
169 20
170 5
171 1
172 1
173 20
174 1
175 1
176 1
177 1
178 20
179 1
180 1
181 1
182 1
183 10
184 5
185 20
186 1
187 1
188 1
189 10
190 5
191 1
192 1
193 10
194 5
195 1
196 20
197 5
198 1
199 1
200 10
201 5
202 10
203 5
204 10
205 5
206 10
207 5
208 1
209 10
210 5
211 1
212 1
213 1
214 1
215 20
216 5
217 1
218 10
219 1
220 20
221 5
222 1
223 1
224 1
225 1
226 20
227 5
228 1
229 1
230 20
231 5
232 1
233 1
234 1
235 20
236 5
237 1
238 1
239 20
240 5
241 1
242 20
243 5
244 1
245 1
246 1
247 1
248 10
DEPOT_SECTION
1
-1
EOF