Normalized Data/p02_1030_tsplib0_normalized_split0.sol
247 -7 6 5 4 81 80 195 197 198 196 246 243 244 241 242 245 -11 12 9 8 10 136 135 134 91 90 33 34 32 31 118 117 119 121 122 120 40 41 39 -13 138 140 139 137 163 164 165 142 141 98 99 95 96 97 -17 16 61 227 226 228 225 194 193 192 232 230 229 233 231 108 107 105 106 153 152 151 -20 19 18 21 93 92 94 218 217 247 -23 26 25 166 167 36 37 209 213 210 212 211 208 205 206 207 112 115 114 116 113 111 -27 22 24 191 188 190 189 48 102 101 100 215 214 -38 235 236 237 234 89 87 88 35 184 186 185 187 -56 55 125 123 124 76 74 78 75 77 -68 67 69 177 180 179 181 178 71 70 155 156 154 54 161 162 -72 73 172 175 176 173 174 57 159 157 158 -79 46 47 42 45 43 44 170 169 168 171 60 59 58 28 29 30 216 -84 83 82 14 15 110 109 52 50 49 51 182 183 -86 85 63 62 221 219 220 224 223 222 103 104 144 146 148 145 147 143 150 149 -131 133 132 127 128 129 126 130 204 203 64 66 65 199 200 -160 53 201 202 1 3 2 238 239 240 0 





OBJ=
1118.873
BEST_KNOWN=
0.000